
Gurobi 9.5.2 (mac64[arm]) logging started Mon May  1 21:53:29 2023

Set parameter LogFile to value "Java/output/special_iterative/scenario_seed_2_nJob_40_machineCount_2/mip_increment_1/log.txt"
Gurobi Optimizer version 9.5.2 build v9.5.2rc0 (mac64[arm])
Thread count: 8 physical cores, 8 logical processors, using up to 8 threads
Optimize a model with 2357 rows, 14898 columns and 167487 nonzeros
Model fingerprint: 0x19b2eaaf
Variable types: 0 continuous, 14898 integer (14898 binary)
Coefficient statistics:
  Matrix range     [1e+00, 2e+02]
  Objective range  [2e+01, 4e+06]
  Bounds range     [1e+00, 1e+00]
  RHS range        [1e+00, 1e+00]
Found heuristic solution: objective 1.175158e+07
Presolve removed 191 rows and 1562 columns
Presolve time: 0.18s
Presolved: 2166 rows, 13336 columns, 150391 nonzeros
Variable types: 0 continuous, 13336 integer (13336 binary)
Found heuristic solution: objective 9009488.0000

Root relaxation: objective 8.297746e+03, 2053 iterations, 0.09 seconds (0.20 work units)

    Nodes    |    Current Node    |     Objective Bounds      |     Work
 Expl Unexpl |  Obj  Depth IntInf | Incumbent    BestBd   Gap | It/Node Time

     0     0 8297.74613    0   98 9009488.00 8297.74613   100%     -    0s
H    0     0                    3772816.0000 8297.74613   100%     -    0s
H    0     0                    2131728.0000 8297.74613   100%     -    0s
H    0     0                    2111440.0000 8297.74613   100%     -    0s
H    0     0                    1469216.0000 8297.74613  99.4%     -    0s
H    0     0                    8768.0000000 8307.72230  5.25%     -    0s
     0     0 8307.72230    0  142 8768.00000 8307.72230  5.25%     -    0s
H    0     0                    8704.0000000 8307.72230  4.55%     -    0s
     0     0 8311.52336    0  127 8704.00000 8311.52336  4.51%     -    0s
     0     0 8311.52336    0  126 8704.00000 8311.52336  4.51%     -    0s
     0     0 8317.06322    0  139 8704.00000 8317.06322  4.45%     -    0s
     0     0 8317.06322    0  103 8704.00000 8317.06322  4.45%     -    0s
H    0     0                    8656.0000000 8317.06322  3.92%     -    0s
     0     0 8317.06322    0  142 8656.00000 8317.06322  3.92%     -    1s
H    0     0                    8608.0000000 8317.06322  3.38%     -    1s
     0     0 8319.63040    0  125 8608.00000 8319.63040  3.35%     -    1s
     0     0 8319.74148    0  140 8608.00000 8319.74148  3.35%     -    1s
     0     0 8322.55181    0  178 8608.00000 8322.55181  3.32%     -    1s
     0     0 8322.57333    0  163 8608.00000 8322.57333  3.32%     -    1s
     0     0 8322.57333    0  164 8608.00000 8322.57333  3.32%     -    1s
H    0     0                    8592.0000000 8322.57333  3.14%     -    1s
     0     0 8330.40440    0  179 8592.00000 8330.40440  3.04%     -    1s
H    0     0                    8560.0000000 8330.40440  2.68%     -    1s
H    0     0                    8496.0000000 8330.40440  1.95%     -    1s
     0     0 8331.69933    0  192 8496.00000 8331.69933  1.93%     -    1s
     0     0 8332.36306    0  190 8496.00000 8332.36306  1.93%     -    1s
     0     0 8332.43486    0  194 8496.00000 8332.43486  1.93%     -    1s
     0     0 8332.47021    0  188 8496.00000 8332.47021  1.92%     -    1s
     0     0 8332.47021    0  190 8496.00000 8332.47021  1.92%     -    1s
     0     0 8338.28623    0  157 8496.00000 8338.28623  1.86%     -    1s
     0     0 8339.96974    0  193 8496.00000 8339.96974  1.84%     -    1s
     0     0 8340.39455    0  186 8496.00000 8340.39455  1.83%     -    1s
H    0     0                    8480.0000000 8340.39455  1.65%     -    1s
     0     0 8340.65260    0  175 8480.00000 8340.65260  1.64%     -    1s
     0     0 8340.65260    0  185 8480.00000 8340.65260  1.64%     -    1s
     0     0 8341.95609    0  221 8480.00000 8341.95609  1.63%     -    1s
     0     0 8342.01911    0  221 8480.00000 8342.01911  1.63%     -    1s
     0     0 8342.02598    0  231 8480.00000 8342.02598  1.63%     -    1s
     0     0 8343.96668    0  193 8480.00000 8343.96668  1.60%     -    1s
     0     0 8344.31831    0  220 8480.00000 8344.31831  1.60%     -    1s
     0     0 8344.31924    0  225 8480.00000 8344.31924  1.60%     -    1s
     0     0 8344.84343    0  227 8480.00000 8344.84343  1.59%     -    1s
     0     0 8345.01013    0  218 8480.00000 8345.01013  1.59%     -    1s
     0     0 8345.01807    0  222 8480.00000 8345.01807  1.59%     -    1s
     0     0 8345.21077    0  227 8480.00000 8345.21077  1.59%     -    2s
     0     0 8345.21077    0  226 8480.00000 8345.21077  1.59%     -    2s
     0     0 8345.53308    0  222 8480.00000 8345.53308  1.59%     -    2s
     0     0 8345.53308    0  225 8480.00000 8345.53308  1.59%     -    2s
     0     0 8345.56772    0  233 8480.00000 8345.56772  1.59%     -    2s
     0     0 8345.56772    0  218 8480.00000 8345.56772  1.59%     -    2s
     0     0 8345.62950    0   96 8480.00000 8345.62950  1.58%     -    2s
     0     0 8345.62950    0  145 8480.00000 8345.62950  1.58%     -    2s
H    0     0                    8448.0000000 8345.62950  1.21%     -    2s
     0     0 8345.62950    0  151 8448.00000 8345.62950  1.21%     -    2s
     0     0 8345.62950    0  192 8448.00000 8345.62950  1.21%     -    2s
     0     0 8345.62950    0  183 8448.00000 8345.62950  1.21%     -    2s
     0     0 8345.62950    0  172 8448.00000 8345.62950  1.21%     -    2s
     0     0 8345.62950    0  206 8448.00000 8345.62950  1.21%     -    2s
     0     0 8345.62950    0  220 8448.00000 8345.62950  1.21%     -    2s
     0     0 8345.62950    0  219 8448.00000 8345.62950  1.21%     -    2s
     0     0 8345.65876    0  207 8448.00000 8345.65876  1.21%     -    2s
     0     0 8345.72422    0  232 8448.00000 8345.72422  1.21%     -    2s
     0     0 8345.72588    0  240 8448.00000 8345.72588  1.21%     -    2s
     0     0 8346.89289    0  189 8448.00000 8346.89289  1.20%     -    2s
     0     0 8347.49653    0  223 8448.00000 8347.49653  1.19%     -    2s
     0     0 8347.80206    0  203 8448.00000 8347.80206  1.19%     -    2s
     0     0 8347.80509    0  207 8448.00000 8347.80509  1.19%     -    2s
     0     0 8347.98452    0  216 8448.00000 8347.98452  1.18%     -    2s
     0     0 8348.13778    0  191 8448.00000 8348.13778  1.18%     -    2s
     0     0 8348.31896    0  186 8448.00000 8348.31896  1.18%     -    2s
     0     0 8348.36135    0  189 8448.00000 8348.36135  1.18%     -    2s
     0     0 8348.36493    0  188 8448.00000 8348.36493  1.18%     -    3s
     0     0 8348.58061    0  210 8448.00000 8348.58061  1.18%     -    3s
     0     0 8348.58061    0  211 8448.00000 8348.58061  1.18%     -    3s
     0     0 8348.80437    0  199 8448.00000 8348.80437  1.17%     -    3s
     0     0 8348.80437    0  196 8448.00000 8348.80437  1.17%     -    3s
     0     2 8348.88846    0  191 8448.00000 8348.88846  1.17%     -    3s
H  143    94                    8432.0000000 8348.91179  0.99%   186    4s
H  236   147                    8416.0000000 8348.91179  0.80%   157    4s
H  468   254                    8400.0000000 8351.49845  0.58%   160    4s
   587   278 8397.31615   20  148 8400.00000 8351.49845  0.58%   165    5s
* 1090   447             170    8384.0000000 8362.32285  0.26%   149    5s

Cutting planes:
  Gomory: 2
  Cover: 18
  Clique: 63
  MIR: 67
  StrongCG: 39
  GUB cover: 74
  Zero half: 9
  Mod-K: 1
  RLT: 9

Explored 1509 nodes (215335 simplex iterations) in 5.76 seconds (11.50 work units)
Thread count was 8 (of 8 available processors)

Solution count 10: 8384 8400 8416 ... 8608

Optimal solution found (tolerance 1.00e-04)
Best objective 8.384000000000e+03, best bound 8.384000000000e+03, gap 0.0000%

Gurobi 9.5.2 (mac64[arm]) logging started Mon May  1 21:53:35 2023

Set parameter LogFile to value "Java/output/special_iterative/scenario_seed_2_nJob_40_machineCount_2/mip_increment_1/log.txt"
Gurobi Optimizer version 9.5.2 build v9.5.2rc0 (mac64[arm])
Thread count: 8 physical cores, 8 logical processors, using up to 8 threads
Optimize a model with 2355 rows, 11348 columns and 130989 nonzeros
Model fingerprint: 0xd9c1ee24
Variable types: 0 continuous, 11348 integer (11348 binary)
Coefficient statistics:
  Matrix range     [1e+00, 2e+02]
  Objective range  [3e+01, 1e+06]
  Bounds range     [1e+00, 1e+00]
  RHS range        [1e+00, 1e+00]
Found heuristic solution: objective 4356852.0000
Presolve removed 667 rows and 1628 columns
Presolve time: 0.15s
Presolved: 1688 rows, 9720 columns, 111178 nonzeros
Variable types: 0 continuous, 9720 integer (9720 binary)
Found heuristic solution: objective 3778280.0000

Root relaxation: objective 1.664928e+05, 824 iterations, 0.02 seconds (0.04 work units)

    Nodes    |    Current Node    |     Objective Bounds      |     Work
 Expl Unexpl |  Obj  Depth IntInf | Incumbent    BestBd   Gap | It/Node Time

     0     0 166492.848    0   69 3778280.00 166492.848  95.6%     -    0s
H    0     0                    1132572.0000 166492.848  85.3%     -    0s
H    0     0                    829296.00000 166492.848  79.9%     -    0s
H    0     0                    457176.00000 166492.848  63.6%     -    0s
     0     0 167333.010    0   86 457176.000 167333.010  63.4%     -    0s
H    0     0                    326432.00000 167333.010  48.7%     -    0s
     0     0 167349.495    0   70 326432.000 167349.495  48.7%     -    0s
     0     0 167928.879    0   86 326432.000 167928.879  48.6%     -    0s
H    0     0                    311408.00000 167928.879  46.1%     -    0s
     0     0 169089.298    0   81 311408.000 169089.298  45.7%     -    0s
     0     0 169089.427    0   84 311408.000 169089.427  45.7%     -    0s
     0     0 169363.052    0   87 311408.000 169363.052  45.6%     -    0s
     0     0 169363.052    0   69 311408.000 169363.052  45.6%     -    0s
H    0     0                    311240.00000 169363.052  45.6%     -    0s
H    0     0                    270516.00000 169363.052  37.4%     -    0s
     0     0 169363.052    0   65 270516.000 169363.052  37.4%     -    0s
H    0     0                    270344.00000 169363.052  37.4%     -    0s
H    0     0                    169648.00000 169363.052  0.17%     -    0s
     0     0 169374.394    0   80 169648.000 169374.394  0.16%     -    0s
     0     0 169378.686    0   70 169648.000 169378.686  0.16%     -    0s
     0     0 169379.556    0   85 169648.000 169379.556  0.16%     -    0s
     0     0 169480.909    0   90 169648.000 169480.909  0.10%     -    1s
H    0     0                    169644.00000 169480.909  0.10%     -    1s
     0     0 169578.897    0   13 169644.000 169578.897  0.04%     -    1s
     0     0 169595.273    0   28 169644.000 169595.273  0.03%     -    1s
H    0     0                    169628.00000 169595.273  0.02%     -    1s
H    0     0                    169608.00000 169595.273  0.01%     -    1s
     0     0 169600.258    0   31 169608.000 169600.258  0.00%     -    1s

Cutting planes:
  Gomory: 2
  Cover: 1
  Clique: 6
  GUB cover: 4
  Zero half: 1

Explored 1 nodes (3711 simplex iterations) in 1.12 seconds (1.81 work units)
Thread count was 8 (of 8 available processors)

Solution count 10: 169608 169628 169644 ... 311408

Optimal solution found (tolerance 1.00e-04)
Best objective 1.696080000000e+05, best bound 1.696040000000e+05, gap 0.0024%

Gurobi 9.5.2 (mac64[arm]) logging started Mon May  1 21:53:37 2023

Set parameter LogFile to value "Java/output/special_iterative/scenario_seed_2_nJob_40_machineCount_2/mip_increment_1/log.txt"
Gurobi Optimizer version 9.5.2 build v9.5.2rc0 (mac64[arm])
Thread count: 8 physical cores, 8 logical processors, using up to 8 threads
Optimize a model with 2360 rows, 8299 columns and 89145 nonzeros
Model fingerprint: 0xd0722961
Variable types: 0 continuous, 8299 integer (8299 binary)
Coefficient statistics:
  Matrix range     [1e+00, 2e+02]
  Objective range  [8e+01, 2e+05]
  Bounds range     [1e+00, 1e+00]
  RHS range        [1e+00, 1e+00]
Presolve removed 1164 rows and 1499 columns
Presolve time: 0.09s
Presolved: 1196 rows, 6800 columns, 72188 nonzeros
Variable types: 0 continuous, 6800 integer (6798 binary)

Root relaxation: objective 1.641490e+05, 822 iterations, 0.02 seconds (0.04 work units)

    Nodes    |    Current Node    |     Objective Bounds      |     Work
 Expl Unexpl |  Obj  Depth IntInf | Incumbent    BestBd   Gap | It/Node Time

     0     0 164149.017    0   56          - 164149.017      -     -    0s
H    0     0                    324310.00000 164149.017  49.4%     -    0s
H    0     0                    269217.00000 164149.017  39.0%     -    0s
H    0     0                    175931.00000 164149.017  6.70%     -    0s
H    0     0                    173598.00000 164149.017  5.44%     -    0s
     0     0 165165.447    0   65 173598.000 165165.447  4.86%     -    0s
     0     0 165165.447    0   56 173598.000 165165.447  4.86%     -    0s
     0     0 165251.705    0   73 173598.000 165251.705  4.81%     -    0s
H    0     0                    173167.00000 165251.705  4.57%     -    0s
     0     0 165818.879    0   78 173167.000 165818.879  4.24%     -    0s
     0     0 165818.879    0   78 173167.000 165818.879  4.24%     -    0s
     0     0 166276.725    0   75 173167.000 166276.725  3.98%     -    0s
     0     0 166291.753    0   95 173167.000 166291.753  3.97%     -    0s
     0     0 166315.869    0   99 173167.000 166315.869  3.96%     -    0s
     0     0 166856.103    0   99 173167.000 166856.103  3.64%     -    0s
H    0     0                    172447.00000 166856.103  3.24%     -    0s
     0     0 166937.739    0  103 172447.000 166937.739  3.19%     -    0s
     0     0 167017.434    0  104 172447.000 167017.434  3.15%     -    0s
     0     0 167019.348    0  108 172447.000 167019.348  3.15%     -    0s
H    0     0                    171536.00000 167019.348  2.63%     -    0s
     0     0 167877.320    0   95 171536.000 167877.320  2.13%     -    0s
     0     0 168055.778    0   92 171536.000 168055.778  2.03%     -    0s
     0     0 168058.654    0  103 171536.000 168058.654  2.03%     -    0s
     0     0 168059.854    0  107 171536.000 168059.854  2.03%     -    0s
     0     0 168151.989    0  102 171536.000 168151.989  1.97%     -    0s
H    0     0                    171258.00000 168151.989  1.81%     -    0s
H    0     0                    170607.00000 168151.989  1.44%     -    0s
     0     0 168175.916    0   98 170607.000 168175.916  1.42%     -    0s
     0     0 168183.646    0  103 170607.000 168183.646  1.42%     -    0s
     0     0 168184.645    0  106 170607.000 168184.645  1.42%     -    0s
     0     0 168275.989    0  129 170607.000 168275.989  1.37%     -    0s
     0     0 168308.689    0  118 170607.000 168308.689  1.35%     -    0s
     0     0 168362.404    0  123 170607.000 168362.404  1.32%     -    0s
     0     0 168362.404    0   66 170607.000 168362.404  1.32%     -    0s
     0     0 168362.404    0   86 170607.000 168362.404  1.32%     -    0s
     0     0 168362.404    0   90 170607.000 168362.404  1.32%     -    0s
     0     0 168362.404    0   73 170607.000 168362.404  1.32%     -    0s
     0     0 168370.360    0   85 170607.000 168370.360  1.31%     -    0s
     0     0 168380.395    0   83 170607.000 168380.395  1.31%     -    0s
     0     0 168380.746    0   86 170607.000 168380.746  1.30%     -    0s
     0     0 168516.804    0  101 170607.000 168516.804  1.23%     -    0s
     0     0 168538.959    0  107 170607.000 168538.959  1.21%     -    0s
     0     0 168541.110    0  108 170607.000 168541.110  1.21%     -    0s
     0     0 168541.372    0  113 170607.000 168541.372  1.21%     -    0s
     0     0 168671.963    0  111 170607.000 168671.963  1.13%     -    0s
H    0     0                    169785.00000 168671.963  0.66%     -    0s
     0     0 168693.527    0  102 169785.000 168693.527  0.64%     -    0s
     0     0 168729.737    0  102 169785.000 168729.737  0.62%     -    0s
     0     0 168732.662    0   96 169785.000 168732.662  0.62%     -    0s
     0     0 168868.533    0  104 169785.000 168868.533  0.54%     -    1s
     0     0 168881.303    0  108 169785.000 168881.303  0.53%     -    1s
     0     0 168881.534    0  110 169785.000 168881.534  0.53%     -    1s
     0     0 168923.600    0   46 169785.000 168923.600  0.51%     -    1s
     0     0 168928.051    0  105 169785.000 168928.051  0.50%     -    1s
     0     0 168928.681    0  108 169785.000 168928.681  0.50%     -    1s
H    0     0                    169727.00000 168928.681  0.47%     -    1s
     0     0 168928.681    0  109 169727.000 168928.681  0.47%     -    1s
     0     0 168928.681    0  109 169727.000 168928.681  0.47%     -    1s
     0     0 168941.500    0   49 169727.000 168941.500  0.46%     -    1s
     0     0 168941.500    0   47 169727.000 168941.500  0.46%     -    1s
     0     0 168961.500    0   34 169727.000 168961.500  0.45%     -    1s
     0     0 168961.500    0   50 169727.000 168961.500  0.45%     -    1s
     0     0 168961.500    0   26 169727.000 168961.500  0.45%     -    1s
     0     0 168961.500    0   55 169727.000 168961.500  0.45%     -    1s
     0     0 168961.500    0   55 169727.000 168961.500  0.45%     -    1s
     0     0     cutoff    0      169727.000 169727.000  0.00%     -    1s

Cutting planes:
  Gomory: 2
  Cover: 4
  Clique: 7
  MIR: 6
  StrongCG: 1
  GUB cover: 12
  Zero half: 6
  RLT: 1

Explored 1 nodes (6757 simplex iterations) in 1.20 seconds (1.58 work units)
Thread count was 8 (of 8 available processors)

Solution count 10: 169727 169727 169727 ... 171258

Optimal solution found (tolerance 1.00e-04)
Best objective 1.697270000000e+05, best bound 1.697270000000e+05, gap 0.0000%

Gurobi 9.5.2 (mac64[arm]) logging started Mon May  1 21:53:38 2023

Set parameter LogFile to value "Java/output/special_iterative/scenario_seed_2_nJob_40_machineCount_2/mip_increment_1/log.txt"
Gurobi Optimizer version 9.5.2 build v9.5.2rc0 (mac64[arm])
Thread count: 8 physical cores, 8 logical processors, using up to 8 threads
Optimize a model with 2488 rows, 45076 columns and 505385 nonzeros
Model fingerprint: 0x85c4f77f
Variable types: 0 continuous, 45076 integer (45076 binary)
Coefficient statistics:
  Matrix range     [1e+00, 2e+02]
  Objective range  [2e+00, 4e+06]
  Bounds range     [1e+00, 1e+00]
  RHS range        [1e+00, 1e+00]

Warning: Completing partial solution with 44958 unfixed non-continuous variables out of 45076
User MIP start produced solution with objective 319522 (0.03s)
Loaded user MIP start with objective 319522

Presolve removed 106 rows and 4735 columns
Presolve time: 0.50s
Presolved: 2382 rows, 40341 columns, 454200 nonzeros
Variable types: 0 continuous, 40341 integer (40339 binary)
Found heuristic solution: objective 312865.00000

Root relaxation: objective 1.673965e+04, 22327 iterations, 3.41 seconds (8.81 work units)

    Nodes    |    Current Node    |     Objective Bounds      |     Work
 Expl Unexpl |  Obj  Depth IntInf | Incumbent    BestBd   Gap | It/Node Time

     0     0 16739.6479    0  388 312865.000 16739.6479  94.6%     -    4s
H    0     0                    306764.00000 16739.6479  94.5%     -    4s
H    0     0                    298723.00000 16739.6479  94.4%     -    4s
H    0     0                    252639.00000 16739.6479  93.4%     -    4s
H    0     0                    247757.00000 16824.9238  93.2%     -    7s
     0     0 16824.9238    0  521 247757.000 16824.9238  93.2%     -    7s
H    0     0                    242780.00000 16824.9238  93.1%     -    7s
H    0     0                    241989.00000 16824.9238  93.0%     -    7s
H    0     0                    240984.00000 16824.9238  93.0%     -    7s
     0     0 16859.3795    0  485 240984.000 16859.3795  93.0%     -    8s
     0     0 16860.7699    0  510 240984.000 16860.7699  93.0%     -    8s
     0     0 16860.7742    0  510 240984.000 16860.7742  93.0%     -    8s
H    0     0                    223130.00000 16931.2700  92.4%     -   11s
     0     0 16931.2700    0  580 223130.000 16931.2700  92.4%     -   11s
H    0     0                    222938.00000 16931.2700  92.4%     -   11s
H    0     0                    222653.00000 16931.2700  92.4%     -   11s
     0     0 16966.2404    0  635 222653.000 16966.2404  92.4%     -   12s
     0     0 16969.5270    0  633 222653.000 16969.5270  92.4%     -   13s
     0     0 16969.8004    0  630 222653.000 16969.8004  92.4%     -   13s
     0     0 16969.8045    0  627 222653.000 16969.8045  92.4%     -   13s
     0     0 17073.0959    0  676 222653.000 17073.0959  92.3%     -   15s
H    0     0                    193829.00000 17073.0959  91.2%     -   16s
     0     0 17112.8337    0  666 193829.000 17112.8337  91.2%     -   17s
     0     0 17114.9444    0  656 193829.000 17114.9444  91.2%     -   18s
     0     0 17116.2385    0  658 193829.000 17116.2385  91.2%     -   18s
     0     0 17116.2761    0  668 193829.000 17116.2761  91.2%     -   18s
     0     0 17163.3207    0  696 193829.000 17163.3207  91.1%     -   20s
H    0     0                    193781.00000 17163.3207  91.1%     -   20s
H    0     0                    192447.00000 17163.3207  91.1%     -   20s
     0     0 17208.6514    0  711 192447.000 17208.6514  91.1%     -   24s
     0     0 17211.0600    0  718 192447.000 17211.0600  91.1%     -   25s
     0     0 17211.4428    0  713 192447.000 17211.4428  91.1%     -   25s
     0     0 17211.5129    0  721 192447.000 17211.5129  91.1%     -   25s
     0     0 17287.7052    0  720 192447.000 17287.7052  91.0%     -   28s
H    0     0                    189228.00000 17287.7052  90.9%     -   28s
     0     0 17338.9218    0  748 189228.000 17338.9218  90.8%     -   30s
     0     0 17349.3516    0  700 189228.000 17349.3516  90.8%     -   32s
     0     0 17350.4612    0  731 189228.000 17350.4612  90.8%     -   33s
     0     0 17351.4285    0  725 189228.000 17351.4285  90.8%     -   33s
     0     0 17351.5187    0  733 189228.000 17351.5187  90.8%     -   33s
     0     0 17388.9490    0  783 189228.000 17388.9490  90.8%     -   35s
H    0     0                    189224.00000 17388.9490  90.8%     -   35s
H    0     0                    186632.00000 17388.9490  90.7%     -   35s
     0     0 17410.1779    0  795 186632.000 17410.1779  90.7%     -   38s
     0     0 17425.5089    0  804 186632.000 17425.5089  90.7%     -   41s
     0     0 17426.0080    0  803 186632.000 17426.0080  90.7%     -   41s
     0     0 17426.8837    0  806 186632.000 17426.8837  90.7%     -   42s
     0     0 17426.9791    0  795 186632.000 17426.9791  90.7%     -   42s
     0     0 17514.2865    0  759 186632.000 17514.2865  90.6%     -   45s
     0     0 17529.6492    0  794 186632.000 17529.6492  90.6%     -   47s
     0     0 17585.0877    0  765 186632.000 17585.0877  90.6%     -   52s
     0     0 17595.2168    0  787 186632.000 17595.2168  90.6%     -   54s
     0     0 17597.6341    0  794 186632.000 17597.6341  90.6%     -   55s
     0     0 17597.9438    0  808 186632.000 17597.9438  90.6%     -   55s
     0     0 17824.1104    0  794 186632.000 17824.1104  90.4%     -   58s
H    0     0                    185933.00000 17824.1104  90.4%     -   58s
     0     0 17856.5095    0  815 185933.000 17856.5095  90.4%     -   60s
     0     0 17914.4031    0  824 185933.000 17914.4031  90.4%     -   63s
H    0     0                    166088.00000 17970.3801  89.2%     -   69s
     0     0 17970.3801    0  849 166088.000 17970.3801  89.2%     -   69s
     0     0 17973.1985    0  862 166088.000 17973.1985  89.2%     -   70s
     0     0 17974.4923    0  852 166088.000 17974.4923  89.2%     -   71s
     0     0 17974.5700    0  847 166088.000 17974.5700  89.2%     -   71s
     0     0 18218.3230    0  844 166088.000 18218.3230  89.0%     -   76s
H    0     0                    165661.00000 18218.3230  89.0%     -   76s
H    0     0                    165629.00000 18218.3230  89.0%     -   76s
H    0     0                    165374.00000 18218.3230  89.0%     -   76s
     0     0 18389.9069    0  844 165374.000 18389.9069  88.9%     -   81s
     0     0 18418.8913    0  837 165374.000 18418.8913  88.9%     -   86s
     0     0 18428.0443    0  876 165374.000 18428.0443  88.9%     -   88s
     0     0 18430.1002    0  879 165374.000 18430.1002  88.9%     -   89s
     0     0 18430.2343    0  878 165374.000 18430.2343  88.9%     -   89s
     0     0 18926.3952    0  844 165374.000 18926.3952  88.6%     -   94s
H    0     0                    162499.00000 18926.3952  88.4%     -   95s
     0     0 18963.2895    0  838 162499.000 18963.2895  88.3%     -   97s
     0     0 18974.5026    0  865 162499.000 18974.5026  88.3%     -   99s
H    0     0                    153233.00000 18979.6444  87.6%     -  100s
     0     0 18979.6444    0  879 153233.000 18979.6444  87.6%     -  100s
     0     0 18981.6169    0  906 153233.000 18981.6169  87.6%     -  102s
     0     0 18982.1031    0  893 153233.000 18982.1031  87.6%     -  102s
     0     0 19481.7570    0  865 153233.000 19481.7570  87.3%     -  107s
H    0     0                    153218.00000 19481.7570  87.3%     -  107s
H    0     0                    153210.00000 19481.7570  87.3%     -  107s
H    0     0                    123128.00000 19481.7570  84.2%     -  110s
     0     0 19539.2111    0  887 123128.000 19539.2111  84.1%     -  116s
     0     0 19874.9713    0  882 123128.000 19874.9713  83.9%     -  120s
     0     0 19897.5984    0  901 123128.000 19897.5984  83.8%     -  122s
     0     0 19900.0663    0  904 123128.000 19900.0663  83.8%     -  123s
     0     0 19900.3651    0  919 123128.000 19900.3651  83.8%     -  123s
     0     0 20681.5765    0  820 123128.000 20681.5765  83.2%     -  127s
H    0     0                    123112.00000 20681.5765  83.2%     -  127s
H    0     0                    123088.00000 20681.5765  83.2%     -  127s
H    0     0                    122845.00000 20681.5765  83.2%     -  127s
     0     0 20876.9453    0  825 122845.000 20876.9453  83.0%     -  133s
     0     0 20886.8539    0  892 122845.000 20886.8539  83.0%     -  135s
     0     0 20912.3476    0  877 122845.000 20912.3476  83.0%     -  138s
     0     0 20921.9145    0  871 122845.000 20921.9145  83.0%     -  141s
     0     0 20925.4269    0  869 122845.000 20925.4269  83.0%     -  143s
     0     0 20926.4595    0  869 122845.000 20926.4595  83.0%     -  143s
     0     0 21731.0350    0  872 122845.000 21731.0350  82.3%     -  147s
H    0     0                    121091.00000 21731.0350  82.1%     -  149s
     0     0 21795.7193    0  884 121091.000 21795.7193  82.0%     -  152s
H    0     0                    106358.00000 21900.2042  79.4%     -  156s
     0     0 21900.2042    0  921 106358.000 21900.2042  79.4%     -  156s
     0     0 21905.3208    0  904 106358.000 21905.3208  79.4%     -  158s
H    0     0                    83988.000000 21910.7061  73.9%     -  159s
     0     0 21910.7061    0  923 83988.0000 21910.7061  73.9%     -  159s
     0     0 21913.4988    0  927 83988.0000 21913.4988  73.9%     -  159s
     0     0 22381.0863    0  875 83988.0000 22381.0863  73.4%     -  164s
     0     0 22381.0863    0  432 83988.0000 22381.0863  73.4%     -  169s
H    0     0                    82033.000000 22381.0863  72.7%     -  169s
     0     0 22381.0863    0  561 82033.0000 22381.0863  72.7%     -  171s
H    0     0                    82025.000000 22381.0863  72.7%     -  171s
H    0     0                    81887.000000 22381.0863  72.7%     -  171s
     0     0 22381.0863    0  635 81887.0000 22381.0863  72.7%     -  174s
     0     0 22381.0863    0  734 81887.0000 22381.0863  72.7%     -  177s
     0     0 22381.0863    0  758 81887.0000 22381.0863  72.7%     -  181s
     0     0 22447.2674    0  783 81887.0000 22447.2674  72.6%     -  184s
     0     0 22467.8573    0  799 81887.0000 22467.8573  72.6%     -  185s
     0     0 22468.8507    0  812 81887.0000 22468.8507  72.6%     -  186s
     0     0 22469.2264    0  792 81887.0000 22469.2264  72.6%     -  186s
     0     0 22469.3105    0  813 81887.0000 22469.3105  72.6%     -  186s
     0     0 22469.7920    0  803 81887.0000 22469.7920  72.6%     -  187s
     0     0 22469.7920    0  800 81887.0000 22469.7920  72.6%     -  187s
     0     0 23676.7998    0  824 81887.0000 23676.7998  71.1%     -  190s
     0     0 23956.3023    0  814 81887.0000 23956.3023  70.7%     -  192s
     0     0 23964.8145    0  838 81887.0000 23964.8145  70.7%     -  193s
     0     0 23964.9760    0  823 81887.0000 23964.9760  70.7%     -  194s
     0     0 24996.8609    0  863 81887.0000 24996.8609  69.5%     -  196s
H    0     0                    81874.000000 24996.8609  69.5%     -  197s
     0     0 25100.5839    0  876 81874.0000 25100.5839  69.3%     -  199s
     0     0 25106.7838    0  872 81874.0000 25106.7838  69.3%     -  200s
     0     0 25106.9763    0  881 81874.0000 25106.9763  69.3%     -  200s
     0     0 25824.1256    0  894 81874.0000 25824.1256  68.5%     -  202s
H    0     0                    81870.000000 25824.1256  68.5%     -  202s
     0     0 25903.7918    0  895 81870.0000 25903.7918  68.4%     -  204s
     0     0 25940.4617    0  927 81870.0000 25940.4617  68.3%     -  206s
     0     0 25956.1450    0  924 81870.0000 25956.1450  68.3%     -  208s
     0     0 25956.8863    0  921 81870.0000 25956.8863  68.3%     -  208s
H    0     0                    79972.000000 25956.8863  67.5%     -  212s
     0     0 27027.9127    0  810 79972.0000 27027.9127  66.2%     -  212s
H    0     0                    79971.000000 27027.9127  66.2%     -  212s
H    0     0                    79963.000000 27027.9127  66.2%     -  214s
H    0     0                    79277.000000 27027.9127  65.9%     -  216s
     0     0 27304.1592    0  809 79277.0000 27304.1592  65.6%     -  216s
     0     0 27342.5158    0  846 79277.0000 27342.5158  65.5%     -  218s
     0     0 27344.7365    0  864 79277.0000 27344.7365  65.5%     -  218s
     0     0 28320.2545    0  882 79277.0000 28320.2545  64.3%     -  221s
H    0     0                    79274.000000 28320.2545  64.3%     -  221s
     0     0 28375.5760    0  888 79274.0000 28375.5760  64.2%     -  223s
     0     0 28378.5149    0  897 79274.0000 28378.5149  64.2%     -  224s
     0     0 28923.6230    0  912 79274.0000 28923.6230  63.5%     -  227s
H    0     0                    79254.000000 28923.6230  63.5%     -  228s
     0     0 29005.3563    0  909 79254.0000 29005.3563  63.4%     -  230s
     0     0 29011.6960    0  948 79254.0000 29011.6960  63.4%     -  232s
     0     0 29640.6318    0  916 79254.0000 29640.6318  62.6%     -  234s
H    0     0                    79252.000000 29640.6318  62.6%     -  234s
H    0     0                    79246.000000 29640.6318  62.6%     -  234s
H    0     0                    78674.000000 29640.6318  62.3%     -  235s
     0     0 29691.5405    0  942 78674.0000 29691.5405  62.3%     -  236s
     0     0 29698.2576    0  939 78674.0000 29698.2576  62.3%     -  237s
     0     0 30224.7641    0  898 78674.0000 30224.7641  61.6%     -  240s
     0     0 30526.1688    0  925 78674.0000 30526.1688  61.2%     -  244s
     0     0 30537.6091    0  905 78674.0000 30537.6091  61.2%     -  245s
     0     0 30538.9487    0  922 78674.0000 30538.9487  61.2%     -  245s
     0     0 31499.4428    0  928 78674.0000 31499.4428  60.0%     -  249s
     0     0 31534.3980    0  955 78674.0000 31534.3980  59.9%     -  250s
     0     0 31552.9256    0  942 78674.0000 31552.9256  59.9%     -  252s
     0     0 31557.1250    0  952 78674.0000 31557.1250  59.9%     -  253s
     0     0 31958.4659    0  898 78674.0000 31958.4659  59.4%     -  258s
     0     0 31973.4859    0  934 78674.0000 31973.4859  59.4%     -  261s
     0     0 31981.2598    0  957 78674.0000 31981.2598  59.3%     -  262s
H    0     0                    78619.000000 31981.2598  59.3%     -  265s
     0     0 32482.4017    0  946 78619.0000 32482.4017  58.7%     -  265s
     0     0 32542.9804    0  944 78619.0000 32542.9804  58.6%     -  268s
     0     0 32546.3062    0  958 78619.0000 32546.3062  58.6%     -  269s
     0     0 32896.2483    0  973 78619.0000 32896.2483  58.2%     -  271s
H    0     0                    78616.000000 32896.2483  58.2%     -  273s
     0     0 32915.5678    0  965 78616.0000 32915.5678  58.1%     -  274s
     0     0 32918.8979    0  975 78616.0000 32918.8979  58.1%     -  275s
     0     0 33424.4315    0  959 78616.0000 33424.4315  57.5%     -  277s
     0     0 33439.7915    0  965 78616.0000 33439.7915  57.5%     -  280s
     0     0 33442.7260    0  997 78616.0000 33442.7260  57.5%     -  280s
     0     0 33698.3227    0  927 78616.0000 33698.3227  57.1%     -  283s
H    0     0                    78615.000000 33698.3227  57.1%     -  285s
     0     0 33707.3330    0  918 78615.0000 33707.3330  57.1%     -  287s
     0     0 33969.9375    0  955 78615.0000 33969.9375  56.8%     -  289s
     0     0 33976.6332    0  964 78615.0000 33976.6332  56.8%     -  290s
     0     0 34823.5278    0  953 78615.0000 34823.5278  55.7%     -  293s
H    0     0                    77057.000000 34823.5278  54.8%     -  298s
     0     0 34826.5841    0  935 77057.0000 34826.5841  54.8%     -  298s
     0     0 35456.7858    0  955 77057.0000 35456.7858  54.0%     -  300s
H    0     0                    77041.000000 35456.7858  54.0%     -  300s
     0     0 35467.0294    0  981 77041.0000 35467.0294  54.0%     -  301s
     0     0 35991.7781    0  957 77041.0000 35991.7781  53.3%     -  303s
     0     0 36001.1341    0  965 77041.0000 36001.1341  53.3%     -  304s
     0     0 36484.0858    0  952 77041.0000 36484.0858  52.6%     -  306s
H    0     0                    75719.000000 36484.0858  51.8%     -  306s
     0     0 36491.5400    0  979 75719.0000 36491.5400  51.8%     -  308s
     0     0 36968.6246    0  956 75719.0000 36968.6246  51.2%     -  312s
     0     0 36977.3446    0  950 75719.0000 36977.3446  51.2%     -  313s
     0     0 37338.6431    0  940 75719.0000 37338.6431  50.7%     -  315s
H    0     0                    75695.000000 37338.6431  50.7%     -  316s
     0     0 37374.6764    0  944 75695.0000 37374.6764  50.6%     -  317s
     0     0 37391.2231    0  948 75695.0000 37391.2231  50.6%     -  318s
     0     0 37588.6656    0  954 75695.0000 37588.6656  50.3%     -  320s
H    0     0                    56149.000000 37588.6656  33.1%     -  323s
     0     0 37623.3305    0  932 56149.0000 37623.3305  33.0%     -  324s
     0     0 37640.4334    0  947 56149.0000 37640.4334  33.0%     -  326s
     0     0 38356.4304    0  904 56149.0000 38356.4304  31.7%     -  332s
H    0     0                    54187.000000 38356.4304  29.2%     -  332s
H    0     0                    53923.000000 38356.4304  28.9%     -  332s
     0     0 38398.8064    0  914 53923.0000 38398.8064  28.8%     -  334s
     0     0 38404.2965    0  941 53923.0000 38404.2965  28.8%     -  335s
     0     0 38837.6212    0  902 53923.0000 38837.6212  28.0%     -  337s
     0     0 38856.0015    0  930 53923.0000 38856.0015  27.9%     -  339s
     0     0 38861.5691    0  915 53923.0000 38861.5691  27.9%     -  339s
     0     0 38988.1904    0  938 53923.0000 38988.1904  27.7%     -  341s
     0     0 38988.1904    0  899 53923.0000 38988.1904  27.7%     -  344s
H    0     0                    53449.000000 38988.1904  27.1%     -  353s
H    0     0                    53427.000000 38988.1904  27.0%     -  353s
H    0     0                    53414.000000 38988.1904  27.0%     -  354s
H    0     0                    53226.000000 38992.4172  26.7%     -  354s
H    0     2                    53115.000000 38992.4172  26.6%     -  356s
     0     2 38992.4172    0  878 53115.0000 38992.4172  26.6%     -  356s
     1     4 45868.8501    1  855 53115.0000 38992.4172  26.6% 29564  367s
     3     8 46093.9909    2  889 53115.0000 39279.7516  26.0% 11540  374s
     7    14 46284.1239    3  911 53115.0000 39358.4122  25.9%  8820  382s
    15    22 46818.3418    4 1019 53115.0000 39432.7190  25.8% 10156  397s
    23    28 46942.2132    5  999 53115.0000 39432.7190  25.8% 14463  408s
H   31    36                    50084.000000 39502.8019  21.1% 13109  416s
    39    44 46971.1269    6  966 50084.0000 39502.8019  21.1% 12485  420s
    47    51 47060.3012    6  965 50084.0000 39539.8656  21.1% 11515  427s
    55    59 46979.9284    7  964 50084.0000 39539.8656  21.1% 11155  433s
H   65    65                    49533.000000 39584.7251  20.1% 10362  441s
H   66    65                    48442.000000 39584.7251  18.3% 10286  441s
    73    74 47051.5387    8  936 48442.0000 39584.7251  18.3% 10147  446s
    84    82 47073.5233    9  961 48442.0000 39584.7251  18.3%  9412  457s
    93    89 47186.6916   10  954 48442.0000 39584.7251  18.3%  9623  472s
H  102    98                    48355.000000 39630.8824  18.0%  9718  486s
H  103    98                    48018.000000 39630.8824  17.5%  9800  486s
   111   106 47314.7437   11  969 48018.0000 39630.8824  17.5% 10196  532s
   121   112 47315.3320   12  925 48018.0000 39630.8824  17.5% 11387  549s
   136   120 47429.4711   14  922 48018.0000 39630.8824  17.5% 11251  558s
H  151   120                    48014.000000 39630.8824  17.5% 10799  558s
   152   133 47853.1031   15  916 48014.0000 39630.8824  17.5% 10954  567s
   166   142 47640.2029   16  929 48014.0000 39630.8824  17.5% 10746  577s
   182   142     cutoff   19      48014.0000 39630.8824  17.5% 10757  590s
H  183   142                    48013.000000 39630.8824  17.5% 10698  590s
H  183   142                    47963.000000 39630.8824  17.4% 10698  590s
H  185   142                    47920.000000 39630.8824  17.3% 10672  590s

Cutting planes:
  Cover: 1
  Clique: 248
  MIR: 430
  StrongCG: 228
  GUB cover: 481
  Zero half: 3

Explored 195 nodes (2974976 simplex iterations) in 590.03 seconds (1698.15 work units)
Thread count was 8 (of 8 available processors)

Solution count 10: 47920 47963 48013 ... 53115

Time limit reached
Best objective 4.792000000000e+04, best bound 3.963100000000e+04, gap 17.2976%
